outputs/case_453.model.txt
supervisory_measures_applied = False
unable_to_fulfill_contract = False
supervisor_consent_other_major_financial_matters = False
supervisor_consent_payment_exceed_limit = False
capital_adequacy_ratio = 40
aml_improvement_completed = True
net_worth_ratio = 3/2
profit_loss_net_worth_accelerated_deterioration = False
net_worth = -10
financial_or_business_deteriorated = False
improvement_plan_approved = False
capital_level_4_measures_executed = True
improvement_plan_effective = False
improvement_plan_submitted = False
unable_to_pay_debt = False
risk_to_insured_interest = False
supervisor_consent_contract_commitment = False
aml_improvement_order = True
aml_internal_control_implemented = True
aml_dedicated_personnel_assigned = True
aml_regular_training = True
aml_audit_procedures = True
aml_anti_money_laundering_procedures = True
aml_risk_assessment_report_updated = True
aml_other_designated_matters = True
aml_internal_control_executed = True
supervisory_measures_applicable = False
supervisory_measures_executed = False
capital_level_4_noncompliance = False
financial_deterioration_with_plan_not_improved = False
aml_inspection_refused = False
capital_level = 4
capital_level_4_compliance = True
aml_inspection_refusal = False
aml_improvement_order_not_complied = False
improvement_plan_submitted_and_approved = False
prohibited_acts_without_supervisor_consent = True
financial_deterioration = False
aml_improvement_order_issued = True
penalty = False
aml_internal_control_compliance = True
aml_internal_control_established = True